175
504
403
960
342
459
44
340
561
80
450
329
432
325
688
320
833
39
532
495
560
416
779
279
48
407
494
792
66
250
560
29
276
720
225
378
155
98
304
81
540
578
1020
205
330
799
333
520
43
480
350
390
140
92
280
208
798
465
720
592
270
792
462
765
480
580
564
144
250
129
544
686
342
476
270
238
52
697
510
240
740
286
748
429
850
351
116
874
490
150
336
248
294
532
27
528
612
663
800
270
282
540
364
688
320
850
273
112
675
245
52
533
403
288
703
189
132
396
150
680
87
690
648
425
210
320
245
494
336
495
646
510
574
600
846
703
26
602
165
400
195
420
230
280
832
168
465
960
646
513
44
170
306
320
464
893
72
50
602
352
441
702
420
90
630
468
615
450
912
407
234
132
495
700
640
319
506
245
475
714
93
882
684
540
90
510
357
615
510
141
432
494
129
352
800
780
56
828
665
520
492
